
Gurobi 6.5.2 (win64) logging started 07/24/16 17:35:04


Gurobi 6.5.2 (win64) logging started 07/24/16 17:35:04

Optimize a model with 2720 rows, 712 columns and 6921 nonzeros
Coefficient statistics:
  Matrix range    [6e-08, 6e+02]
  Objective range [1e+00, 1e+00]
  Bounds range    [1e+00, 1e+00]
  RHS range       [6e-06, 2e+03]
Presolve removed 2115 rows and 93 columns
Presolve time: 0.02s
Presolved: 605 rows, 619 columns, 2875 nonzeros
Variable types: 279 continuous, 340 integer (340 binary)

Root relaxation: objective 1.688258e+01, 1737 iterations, 0.05 seconds

    Nodes    |    Current Node    |     Objective Bounds      |     Work
 Expl Unexpl |  Obj  Depth IntInf | Incumbent    BestBd   Gap | It/Node Time

     0     0   16.88258    0  135          -   16.88258      -     -    0s
H    0     0                      99.8848313   17.05661  82.9%     -    0s
     0     0   18.89677    0  115   99.88483   18.89677  81.1%     -    0s
H    0     0                      19.3514741   18.89677  2.35%     -    0s
     0     0   18.90174    0  116   19.35147   18.90174  2.32%     -    0s
H    0     0                      19.3498539   18.90174  2.32%     -    0s
     0     0   18.91258    0  120   19.34985   18.91258  2.26%     -    0s
     0     0   18.91322    0  119   19.34985   18.91322  2.26%     -    0s
     0     0   18.91507    0  119   19.34985   18.91507  2.25%     -    0s
H    0     0                      19.2872625   18.91507  1.93%     -    0s
     0     0   18.91581    0  120   19.28726   18.91581  1.93%     -    0s
H    0     0                      19.2555331   18.91581  1.76%     -    0s
     0     0   18.91581    0  120   19.25553   18.91581  1.76%     -    0s
H    0     0                      19.2308454   18.91581  1.64%     -    0s
     0     0   18.91581    0  120   19.23085   18.91581  1.64%     -    0s
     0     0   18.91581    0   97   19.23085   18.91581  1.64%     -    0s
     0     0   18.91581    0  112   19.23085   18.91581  1.64%     -    0s
     0     0   18.91993    0  112   19.23085   18.91993  1.62%     -    0s
     0     0   18.92428    0  107   19.23085   18.92428  1.59%     -    0s
     0     0   18.92975    0  109   19.23085   18.92975  1.57%     -    0s
     0     0   18.92975    0  109   19.23085   18.92975  1.57%     -    0s
     0     0   18.92975    0  111   19.23085   18.92975  1.57%     -    0s
     0     0   18.92975    0  108   19.23085   18.92975  1.57%     -    0s
H    0     0                      19.2205030   18.92975  1.51%     -    0s
H    0     0                      19.2071279   18.92975  1.44%     -    0s
     0     2   18.92975    0  108   19.20713   18.92975  1.44%     -    0s
*   57    40              21      19.1920662   19.02901  0.85%  18.6    0s
H  139    88                      19.1899405   19.03048  0.83%  13.9    0s
H  158    95                      19.1790622   19.03048  0.77%  13.5    0s
H  361   170                      19.1774048   19.06477  0.59%  13.0    0s
H 1149   340                      19.1714981   19.09492  0.40%  12.1    0s
* 1181   345              20      19.1707127   19.09771  0.38%  12.1    0s
H 1333   358                      19.1701624   19.09927  0.37%  12.1    0s

Cutting planes:
  Gomory: 4
  MIR: 37

Explored 3953 nodes (44313 simplex iterations) in 1.17 seconds
Thread count was 8 (of 8 available processors)

Optimal solution found (tolerance 1.00e-04)
Best objective 1.917016240963e+01, best bound 1.917016240963e+01, gap 0.0%

Wrote requested result file 'H1\instance18\\Results18E_Sol6.lp'

